1332
65 22 90 46 50 67 91 86 29 76 23 18 5 64 33 85 83 73 80 49 39 93 12 61 57 40 11 14 79 36 30 2 25 1 87 21 60 43 62 84 81 54 26 71 58 88 7 19 51 42 72 8 96 55 94 63 32 10 38 41 15 98 48 13 59 4 35 6 56 34 9 66 3 77 44 75 27 99 20 37 31 68 89 97 28 92 78 47 24 45 69 70 16 95 82 17 53 52 74 
